p tdp 39 73
19 35
2 33
7 28
5 10
9 14
21 37
20 27
27 38
22 32
12 31
13 29
5 25
1 4
8 31
6 17
10 16
25 26
16 24
17 21
19 32
4 18
15 34
33 34
4 21
9 11
18 34
12 13
3 28
24 39
11 35
9 23
6 30
3 39
30 36
18 20
10 19
1 24
26 31
2 20
9 18
21 22
22 36
19 25
25 36
16 19
4 9
1 14
30 32
8 15
8 19
13 39
7 20
4 25
12 18
13 38
8 20
12 25
21 30
18 32
5 34
17 28
2 15
18 36
2 6
17 35
14 26
18 33
13 23
1 37
12 21
12 14
17 33
26 28
